tolerance 2.0
filetype pdb
output bilayer_complex.pdb

add_amber_ter
amber_ter_preserve
nloop 100

structure PROT0.pdb
  number 1
  fixed 0. 0. 0 0. 0. 0.
  radius 1.5
end structure

structure POPC.pdb
  nloop 20
  number 341
  inside box -76.68 -76.68 -23.0 76.68 76.68 0.0
  atoms 47 66
    below plane 0. 0. 1. -18.0
  end atoms
  atoms 131 43
    over plane 0. 0. 1. -4.0
  end atoms
end structure

structure POPC.pdb
  nloop 20
  number 343
  inside box -76.68 -76.68 0.0 76.68 76.68 23.0
  atoms 47 66
    over plane 0. 0. 1. 18.0
  end atoms
  atoms 131 43
    below plane 0. 0. 1. 4.0
  end atoms
end structure

structure WAT.pdb
  nloop 20
  number 60307
  inside box -76.68 -76.68 -102.91 76.68 76.68 -23.0
end structure

structure WAT.pdb
  nloop 20
  number 17601
  inside box -76.68 -76.68 23.0 76.68 76.68 45.50
end structure

structure K+.pdb
  nloop 20
  number 162
  inside box -76.68 -76.68 -102.91 76.68 76.68 -23.0
end structure

structure K+.pdb
  nloop 20
  number 46
  inside box -76.68 -76.68 23.0 76.68 76.68 45.50
end structure

structure Cl-.pdb
  nloop 20
  number 163
  inside box -76.68 -76.68 -102.91 76.68 76.68 -23.0
end structure

structure Cl-.pdb
  nloop 20
  number 46
  inside box -76.68 -76.68 23.0 76.68 76.68 45.50
end structure

